(set-option :print-success false)
(set-logic QF_UF)
(declare-sort x10 0)
(declare-sort x94 0)
(declare-fun x83 () x94)
(declare-fun x99 () x94)
(declare-fun x80 () x94)
(declare-fun x96 (x94 x94) x94)
(declare-fun x130 () x94)
(declare-fun x155 (x94 x94) x94)
(declare-fun x8 () x94)
(assert (not (and (and (= (x155 x8 x130) x130) (and (= (x155 x8 x83) x99) (and (and (= (x155 x8 x80) x83) (and (= (x155 x130 x8) x99) (and (= x83 (x155 x130 x130)) (and (and (= x80 (x155 x130 x99)) (and (= x130 (x155 x130 x80)) (and (= x130 (x155 x83 x8)) (and (= x8 (x155 x83 x130)) (and (and (= (x155 x83 x99) x83) (and (= x99 (x155 x83 x80)) (and (= x83 (x155 x99 x8)) (and (and (= (x155 x99 x83) x130) (and (and (= (x155 x99 x80) x8) (and (= (x155 x80 x8) x8) (and (= x99 (x155 x80 x130)) (and (= (x155 x80 x83) x83) (and (= (x155 x80 x99) x130) (= x80 (x155 x80 x80))))))) (= x99 (x155 x99 x99)))) (= (x155 x99 x130) x80))))) (= x80 (x155 x83 x83))))))) (= x8 (x155 x130 x83)))))) (= x8 (x155 x8 x99))))) (= (x155 x8 x8) x80))))
(assert (let ((x21 (x155 x83 x99)) (x52 (x155 x130 x83)) (x12 (x155 x99 x83)) (x115 (x155 x130 x99)) (x140 (x155 x130 x8)) (x55 (x155 x80 x8)) (x24 (x155 x99 x8)) (x65 (x155 x83 x83)) (x93 (x155 x8 x80)) (x84 (x155 x83 x80)) (x76 (x155 x80 x130)) (x109 (x155 x83 x130)) (x146 (x155 x130 x130)) (x126 (x155 x8 x99)) (x81 (x155 x130 x80)) (x82 (x155 x8 x130)) (x59 (x155 x83 x8)) (x105 (x155 x80 x80)) (x28 (x155 x99 x80)) (x134 (x155 x99 x130)) (x37 (x155 x8 x83)) (x67 (x155 x80 x83)) (x56 (x155 x99 x99)) (x159 (x155 x80 x99)) (x152 (x155 x8 x8))) (and (and (and (and (and (and (and (and (or (or (or (= x105 x83) (or (= x105 x99) (= x105 x80))) (= x130 x105)) (= x105 x8)) (or (= x159 x8) (or (= x130 x159) (or (= x159 x83) (or (= x159 x80) (= x99 x159)))))) (or (or (or (= x67 x83) (or (= x67 x99) (= x80 x67))) (= x130 x67)) (= x8 x67))) (or (or (or (= x83 x76) (or (= x76 x80) (= x76 x99))) (= x76 x130)) (= x76 x8))) (or (= x55 x8) (or (or (= x83 x55) (or (= x99 x55) (= x80 x55))) (= x55 x130)))) (and (or (= x24 x8) (or (= x130 x24) (or (or (= x24 x99) (= x24 x80)) (= x83 x24)))) (and (and (or (or (= x130 x12) (or (= x83 x12) (or (= x12 x99) (= x80 x12)))) (= x8 x12)) (and (or (= x8 x56) (or (= x130 x56) (or (= x83 x56) (or (= x56 x80) (= x56 x99))))) (or (= x28 x8) (or (= x28 x130) (or (= x28 x83) (or (= x28 x80) (= x99 x28))))))) (or (or (= x130 x134) (or (= x83 x134) (or (= x99 x134) (= x80 x134)))) (= x134 x8))))) (and (or (or (or (= x83 x59) (or (= x80 x59) (= x59 x99))) (= x59 x130)) (= x8 x59)) (and (or (= x109 x8) (or (= x130 x109) (or (= x109 x83) (or (= x99 x109) (= x80 x109))))) (and (or (or (= x130 x65) (or (or (= x65 x99) (= x80 x65)) (= x65 x83))) (= x65 x8)) (and (or (or (or (or (= x21 x99) (= x21 x80)) (= x83 x21)) (= x21 x130)) (= x8 x21)) (or (= x8 x84) (or (or (= x84 x83) (or (= x99 x84) (= x84 x80))) (= x130 x84)))))))) (and (and (and (and (or (or (= x130 x115) (or (= x83 x115) (or (= x115 x80) (= x99 x115)))) (= x115 x8)) (or (or (= x130 x81) (or (= x81 x83) (or (= x81 x80) (= x81 x99)))) (= x8 x81))) (or (= x52 x8) (or (= x52 x130) (or (or (= x52 x99) (= x80 x52)) (= x83 x52))))) (or (= x146 x8) (or (or (or (= x146 x99) (= x146 x80)) (= x83 x146)) (= x146 x130)))) (or (= x140 x8) (or (or (= x83 x140) (or (= x140 x80) (= x99 x140))) (= x130 x140))))) (and (and (and (or (or (or (= x83 x37) (or (= x99 x37) (= x80 x37))) (= x130 x37)) (= x8 x37)) (and (or (or (= x130 x93) (or (= x93 x83) (or (= x93 x80) (= x93 x99)))) (= x8 x93)) (or (or (= x130 x126) (or (or (= x126 x80) (= x99 x126)) (= x83 x126))) (= x8 x126)))) (or (= x82 x8) (or (= x130 x82) (or (= x82 x83) (or (= x99 x82) (= x80 x82)))))) (or (= x152 x8) (or (or (or (= x99 x152) (= x152 x80)) (= x152 x83)) (= x130 x152)))))))
(assert (or (and (not (= x8 (x155 x8 (x155 x8 x8)))) (and (and (not (= (x155 x83 (x155 x8 x83)) x8)) (and (not (= x8 (x155 x99 (x155 x8 x99)))) (not (= x8 (x155 x80 (x155 x8 x80)))))) (not (= (x155 x130 (x155 x8 x130)) x8)))) (or (or (or (and (and (not (= x99 (x155 x130 (x155 x99 x130)))) (and (not (= (x155 x83 (x155 x99 x83)) x99)) (and (not (= (x155 x99 (x155 x99 x99)) x99)) (not (= x99 (x155 x80 (x155 x99 x80))))))) (not (= x99 (x155 x8 (x155 x99 x8))))) (and (not (= (x155 x8 (x155 x80 x8)) x80)) (and (and (and (not (= (x155 x80 (x155 x80 x80)) x80)) (not (= (x155 x99 (x155 x80 x99)) x80))) (not (= (x155 x83 (x155 x80 x83)) x80))) (not (= x80 (x155 x130 (x155 x80 x130))))))) (and (and (and (not (= (x155 x83 (x155 x83 x83)) x83)) (and (not (= x83 (x155 x99 (x155 x83 x99)))) (not (= x83 (x155 x80 (x155 x83 x80)))))) (not (= (x155 x130 (x155 x83 x130)) x83))) (not (= (x155 x8 (x155 x83 x8)) x83)))) (and (not (= (x155 x8 (x155 x130 x8)) x130)) (and (and (and (not (= (x155 x80 (x155 x130 x80)) x130)) (not (= (x155 x99 (x155 x130 x99)) x130))) (not (= x130 (x155 x83 (x155 x130 x83))))) (not (= (x155 x130 (x155 x130 x130)) x130)))))))
(assert (and (and (and (not (= x130 x83)) (and (and (not (= x130 x99)) (and (not (= x83 x99)) (and (and (not (= x80 x130)) (and (not (= x99 x80)) (not (= x80 x83)))) (not (= x80 x8))))) (not (= x8 x99)))) (not (= x83 x8))) (not (= x130 x8))))
(assert (and (= (x155 x83 x8) x130) (and (= (x155 x8 x80) x83) (and (= (x155 x130 x8) x99) (= (x155 x8 x8) x80)))))
(assert (not (and (= x80 (x155 x8 x8)) (and (= (x155 x8 x130) x99) (and (and (and (= (x155 x8 x80) x83) (and (and (and (= x80 (x155 x130 x83)) (and (= x83 (x155 x130 x99)) (and (= (x155 x130 x80) x130) (and (= x130 (x155 x83 x8)) (and (= x80 (x155 x83 x130)) (and (and (and (and (= x83 (x155 x99 x8)) (and (= x130 (x155 x99 x130)) (and (= (x155 x99 x83) x99) (and (= x80 (x155 x99 x99)) (and (and (= (x155 x80 x8) x8) (and (and (= x130 (x155 x80 x83)) (and (= x80 (x155 x80 x80)) (= (x155 x80 x99) x99))) (= (x155 x80 x130) x83))) (= (x155 x99 x80) x8)))))) (= (x155 x83 x80) x99)) (= x8 (x155 x83 x99))) (= x83 (x155 x83 x83)))))))) (= (x155 x130 x130) x8)) (= x99 (x155 x130 x8)))) (= (x155 x8 x99) x130)) (= (x155 x8 x83) x8))))))
(assert (let ((x126 (x155 x99 x8)) (x75 (x155 x8 x99)) (x141 (x155 x8 x130)) (x133 (x155 x8 x8)) (x55 (x155 x80 x130)) (x28 (x155 x80 x8)) (x29 (x155 x83 x83)) (x134 (x155 x83 x80)) (x67 (x155 x80 x99)) (x140 (x155 x99 x83)) (x159 (x155 x80 x80)) (x93 (x155 x99 x130)) (x76 (x155 x80 x83)) (x24 (x155 x130 x80)) (x31 (x155 x130 x130)) (x54 (x155 x130 x8)) (x124 (x155 x130 x83)) (x35 (x155 x8 x83)) (x135 (x155 x83 x8)) (x12 (x155 x99 x80)) (x84 (x155 x8 x80)) (x118 (x155 x130 x99)) (x146 (x155 x99 x99)) (x156 (x155 x83 x130)) (x152 (x155 x83 x99))) (let ((x148 (= x130 x146)) (x68 (= x8 x156)) (x110 (= x130 x29)) (x129 (= x8 x67)) (x81 (= x67 x80)) (x70 (= x84 x8)) (x78 (= x126 x83)) (x58 (= x80 x140)) (x119 (= x134 x83)) (x151 (= x118 x80)) (x5 (= x126 x130)) (x27 (= x99 x133)) (x9 (= x80 x54)) (x149 (= x135 x83)) (x48 (= x24 x99)) (x122 (= x130 x140)) (x143 (= x130 x156)) (x20 (= x130 x35)) (x117 (= x8 x31)) (x86 (= x83 x54)) (x42 (= x99 x31)) (x108 (= x99 x29)) (x103 (= x8 x93)) (x113 (= x130 x135)) (x112 (= x140 x99)) (x111 (= x156 x99)) (x90 (= x99 x141)) (x74 (= x99 x126)) (x49 (= x93 x83)) (x82 (= x146 x99)) (x63 (= x55 x80)) (x154 (= x135 x80)) (x157 (= x83 x146)) (x16 (= x93 x130)) (x150 (= x118 x130)) (x79 (= x28 x130)) (x88 (= x152 x8)) (x66 (= x80 x124)) (x53 (= x76 x80)) (x87 (= x99 x35)) (x2 (= x156 x80)) (x121 (= x54 x99)) (x105 (= x80 x159)) (x47 (= x75 x99)) (x14 (= x54 x8)) (x64 (= x28 x99)) (x104 (= x80 x133)) (x7 (= x80 x134)) (x100 (= x130 x152)) (x22 (= x75 x8)) (x127 (= x140 x8)) (x19 (= x99 x135)) (x51 (= x83 x76)) (x71 (= x29 x8)) (x120 (= x83 x124)) (x62 (= x31 x83)) (x41 (= x130 x31)) (x59 (= x12 x80)) (x40 (= x130 x55)) (x1 (= x156 x83)) (x115 (= x146 x80)) (x102 (= x35 x80)) (x73 (= x140 x83)) (x6 (= x84 x99)) (x32 (= x152 x80)) (x98 (= x67 x83)) (x38 (= x80 x31)) (x91 (= x118 x83)) (x21 (= x159 x83)) (x106 (= x126 x8)) (x15 (= x76 x8)) (x147 (= x130 x133)) (x65 (= x130 x159)) (x44 (= x55 x83)) (x136 (= x80 x84)) (x97 (= x24 x130)) (x101 (= x83 x75)) (x11 (= x141 x80)) (x37 (= x99 x67)) (x138 (= x80 x93)) (x43 (= x118 x99)) (x34 (= x130 x124)) (x50 (= x83 x12)) (x144 (= x83 x24)) (x158 (= x75 x130)) (x139 (= x124 x8)) (x109 (= x8 x159)) (x61 (= x80 x75)) (x132 (= x8 x24)) (x39 (= x141 x83)) (x18 (= x8 x135)) (x25 (= x130 x84)) (x46 (= x99 x152)) (x142 (= x83 x28)) (x77 (= x134 x99)) (x13 (= x29 x80)) (x95 (= x28 x8)) (x45 (= x76 x99)) (x131 (= x134 x130)) (x56 (= x99 x159)) (x123 (= x126 x80)) (x116 (= x76 x130)) (x69 (= x8 x12)) (x114 (= x80 x28)) (x125 (= x29 x83)) (x72 (= x8 x118)) (x137 (= x99 x124)) (x4 (= x55 x99)) (x153 (= x141 x130)) (x92 (= x8 x133)) (x145 (= x8 x141)) (x33 (= x133 x83)) (x89 (= x130 x12)) (x60 (= x83 x84)) (x17 (= x83 x35)) (x57 (= x130 x54)) (x52 (= x99 x12)) (x85 (= x152 x83)) (x107 (= x146 x8)) (x30 (= x8 x35)) (x3 (= x134 x8)) (x26 (= x80 x24)) (x36 (= x55 x8)) (x128 (= x93 x99)) (x23 (= x67 x130))) (and (and (and (and (and (and (and (or (or (or x131 (or x89 x65)) x97) x25) (or (or (or x116 (or x23 x65)) x40) x79)) (and (and (or (or x44 (or (or x98 x21) x51)) x142) (or (or x144 (or (or x21 x50) x119)) x60)) (and (and (or x64 (or x4 (or (or x56 x37) x45))) (or (or (or (or x56 x52) x77) x48) x6)) (and (or (or x26 (or x7 (or x59 x105))) x136) (or (or x63 (or (or x81 x105) x53)) x114))))) (and (or (or (or x15 (or x109 x129)) x36) x95) (or (or x132 (or (or x69 x109) x3)) x70))) (and (and (or (or x103 (or x127 (or x107 x69))) x106) (or (or (or (or x129 x107) x88) x72) x22)) (and (and (and (or (or x91 (or (or x157 x98) x85)) x101) (or (or (or (or x157 x50) x73) x49) x78)) (and (and (or (or (or x32 (or x81 x115)) x151) x61) (or (or (or x58 (or x59 x115)) x138) x123)) (and (or x74 (or x128 (or x112 (or x82 x52)))) (or x47 (or (or x46 (or x82 x37)) x43))))) (and (or x5 (or x16 (or (or x89 x148) x122))) (or x158 (or (or (or x148 x23) x100) x150)))))) (and (and (or (or (or x71 (or x127 x15)) x139) x30) (or (or x68 (or (or x88 x3) x71)) x18)) (and (and (and (and (or (or x137 (or (or x45 x112) x108)) x87) (or (or (or x108 (or x77 x46)) x111) x19)) (and (or x102 (or (or (or x53 x58) x13) x66)) (or (or (or (or x32 x7) x13) x2) x154))) (and (or x149 (or (or (or x85 x119) x125) x1)) (or (or x120 (or (or x51 x73) x125)) x17))) (and (or (or (or (or x116 x122) x110) x34) x20) (or (or (or x110 (or x131 x100)) x143) x113))))) (and (and (or (or (or x139 (or x72 x132)) x117) x14) (or x145 (or x117 (or (or x36 x103) x68)))) (and (and (and (or x86 (or x62 (or x120 (or x91 x144)))) (or (or (or x1 (or x44 x49)) x62) x39)) (and (and (or x121 (or x42 (or (or x48 x43) x137))) (or (or x42 (or x111 (or x128 x4))) x90)) (and (or x9 (or x38 (or x66 (or x26 x151)))) (or x11 (or (or x2 (or x63 x138)) x38))))) (and (or (or (or x34 (or x150 x97)) x41) x57) (or x153 (or x41 (or x143 (or x40 x16)))))))) (and (and (or x92 (or (or (or x106 x95) x18) x14)) (or x92 (or x145 (or (or x70 x22) x30)))) (and (and (or (or (or (or x25 x158) x20) x153) x147) (or x147 (or x57 (or (or x79 x5) x113)))) (and (and (or x33 (or (or (or x78 x142) x149) x86)) (or (or (or (or x101 x60) x17) x39) x33)) (and (and (or x104 (or (or (or x114 x123) x154) x9)) (or x104 (or (or x102 (or x61 x136)) x11))) (and (or (or (or (or x74 x64) x19) x121) x27) (or (or x90 (or x87 (or x6 x47))) x27))))))))))
(assert (let ((x76 (= x130 (x155 x130 x130))) (x105 (= (x155 x80 x80) x80)) (x55 (= (x155 x8 x8) x8)) (x159 (= x99 (x155 x99 x99))) (x67 (= x83 (x155 x83 x83)))) (and (and (or (not x55) x55) (and (or (not (= (x155 x8 x130) x8)) x76) (and (or x67 (not (= (x155 x8 x83) x8))) (and (or x105 (not (= x8 (x155 x8 x80)))) (or (not (= x8 (x155 x8 x99))) x159))))) (and (and (and (or x55 (not (= x83 (x155 x83 x8)))) (and (and (or (not x67) x67) (and (or x159 (not (= x83 (x155 x83 x99)))) (or (not (= x83 (x155 x83 x80))) x105))) (or (not (= x83 (x155 x83 x130))) x76))) (and (and (or x55 (not (= (x155 x99 x8) x99))) (and (and (and (or x159 (not x159)) (or x105 (not (= x99 (x155 x99 x80))))) (or x67 (not (= (x155 x99 x83) x99)))) (or (not (= (x155 x99 x130) x99)) x76))) (and (and (or (not (= x80 (x155 x80 x130))) x76) (and (or (not (= x80 (x155 x80 x83))) x67) (and (or x105 (not x105)) (or (not (= (x155 x80 x99) x80)) x159)))) (or x55 (not (= x80 (x155 x80 x8))))))) (and (and (and (or (not (= (x155 x130 x83) x130)) x67) (and (or x105 (not (= (x155 x130 x80) x130))) (or x159 (not (= (x155 x130 x99) x130))))) (or x76 (not x76))) (or (not (= x130 (x155 x130 x8))) x55))))))
(assert (let ((x76 (x155 x130 x130)) (x55 (x155 x8 x8)) (x67 (x155 x83 x83)) (x159 (x155 x99 x99)) (x105 (x155 x80 x80))) (or (and (not (= x8 x55)) (and (not (= x76 x8)) (and (and (not (= x105 x8)) (not (= x8 x159))) (not (= x8 x67))))) (or (or (and (not (= x83 x55)) (and (and (and (not (= x83 x105)) (not (= x159 x83))) (not (= x83 x67))) (not (= x83 x76)))) (or (and (not (= x55 x99)) (and (and (not (= x67 x99)) (and (not (= x159 x99)) (not (= x99 x105)))) (not (= x76 x99)))) (and (and (and (not (= x80 x67)) (and (not (= x80 x105)) (not (= x159 x80)))) (not (= x76 x80))) (not (= x80 x55))))) (and (not (= x130 x55)) (and (not (= x76 x130)) (and (not (= x130 x67)) (and (not (= x105 x130)) (not (= x130 x159))))))))))
(assert (let ((x32 (x155 x99 x99)) (x46 (x155 x130 x99)) (x85 (x155 x130 x83)) (x50 (x155 x80 x99)) (x118 (x155 x80 x80)) (x127 (x155 x8 x130)) (x89 (x155 x83 x80)) (x77 (x155 x99 x130)) (x119 (x155 x83 x130)) (x129 (x155 x8 x80)) (x51 (x155 x83 x8)) (x29 (x155 x99 x8)) (x73 (x155 x8 x83)) (x124 (x155 x83 x83)) (x48 (x155 x8 x8)) (x15 (x155 x130 x8)) (x157 (x155 x80 x83)) (x58 (x155 x99 x83)) (x3 (x155 x130 x130)) (x13 (x155 x83 x99)) (x23 (x155 x80 x130)) (x98 (x155 x99 x80)) (x156 (x155 x8 x99)) (x69 (x155 x80 x8)) (x148 (x155 x130 x80))) (let ((x55 (not (= x80 x89))) (x65 (not (= x80 x77))) (x70 (not (= x129 x8))) (x108 (not (= x99 x58))) (x107 (not (= x98 x99))) (x143 (not (= x83 x73))) (x159 (not (= x98 x80))) (x37 (not (= x80 x127))) (x109 (not (= x85 x80))) (x154 (not (= x23 x130))) (x53 (not (= x32 x99))) (x139 (not (= x83 x48))) (x19 (not (= x73 x130))) (x26 (not (= x99 x69))) (x93 (not (= x73 x80))) (x110 (not (= x119 x99))) (x125 (not (= x99 x148))) (x126 (not (= x51 x80))) (x141 (not (= x58 x83))) (x75 (not (= x99 x118))) (x34 (not (= x83 x69))) (x1 (not (= x83 x85))) (x61 (not (= x157 x130))) (x117 (not (= x32 x130))) (x18 (not (= x127 x8))) (x21 (not (= x46 x80))) (x88 (not (= x99 x3))) (x128 (not (= x89 x83))) (x144 (not (= x124 x83))) (x6 (not (= x85 x130))) (x17 (not (= x118 x8))) (x12 (not (= x58 x80))) (x105 (not (= x118 x80))) (x115 (not (= x80 x129))) (x44 (not (= x46 x83))) (x16 (not (= x83 x29))) (x41 (not (= x83 x51))) (x122 (not (= x99 x85))) (x137 (not (= x118 x83))) (x78 (not (= x32 x8))) (x31 (not (= x98 x83))) (x36 (not (= x118 x130))) (x84 (not (= x80 x23))) (x120 (not (= x23 x83))) (x64 (not (= x130 x156))) (x20 (not (= x148 x8))) (x134 (not (= x124 x80))) (x74 (not (= x130 x29))) (x151 (not (= x156 x99))) (x43 (not (= x48 x99))) (x54 (not (= x83 x50))) (x60 (not (= x15 x130))) (x22 (not (= x69 x8))) (x11 (not (= x58 x130))) (x152 (not (= x80 x48))) (x72 (not (= x15 x83))) (x86 (not (= x157 x8))) (x97 (not (= x83 x3))) (x100 (not (= x46 x99))) (x42 (not (= x83 x13))) (x71 (not (= x99 x129))) (x116 (not (= x99 x77))) (x102 (not (= x130 x13))) (x39 (not (= x8 x98))) (x150 (not (= x83 x129))) (x112 (not (= x13 x99))) (x146 (not (= x80 x156))) (x153 (not (= x23 x8))) (x81 (not (= x80 x3))) (x4 (not (= x83 x32))) (x145 (not (= x8 x29))) (x114 (not (= x130 x124))) (x25 (not (= x8 x58))) (x33 (not (= x13 x8))) (x79 (not (= x46 x8))) (x92 (not (= x8 x48))) (x142 (not (= x8 x50))) (x101 (not (= x130 x48))) (x28 (not (= x157 x80))) (x27 (not (= x130 x127))) (x123 (not (= x148 x130))) (x47 (not (= x130 x119))) (x30 (not (= x156 x8))) (x132 (not (= x127 x83))) (x149 (not (= x8 x89))) (x90 (not (= x129 x130))) (x138 (not (= x99 x51))) (x104 (not (= x77 x130))) (x106 (not (= x51 x8))) (x35 (not (= x99 x124))) (x68 (not (= x130 x50))) (x66 (not (= x99 x29))) (x52 (not (= x80 x69))) (x111 (not (= x157 x83))) (x40 (not (= x83 x156))) (x45 (not (= x157 x99))) (x131 (not (= x23 x99))) (x87 (not (= x3 x130))) (x95 (not (= x8 x73))) (x59 (not (= x119 x80))) (x2 (not (= x127 x99))) (x62 (not (= x83 x119))) (x135 (not (= x89 x99))) (x91 (not (= x83 x148))) (x113 (not (= x85 x8))) (x133 (not (= x69 x130))) (x24 (not (= x80 x148))) (x82 (not (= x80 x15))) (x9 (not (= x130 x46))) (x158 (not (= x8 x124))) (x63 (not (= x99 x73))) (x5 (not (= x77 x8))) (x140 (not (= x80 x29))) (x7 (not (= x99 x50))) (x49 (not (= x77 x83))) (x67 (not (= x80 x50))) (x121 (not (= x51 x130))) (x38 (not (= x99 x15))) (x56 (not (= x80 x13))) (x76 (not (= x80 x32))) (x147 (not (= x8 x3))) (x14 (not (= x15 x8))) (x136 (not (= x130 x89))) (x57 (not (= x119 x8))) (x103 (not (= x130 x98)))) (or (and (and (and (or x18 x14) (and (or x95 x106) (and (or x70 x22) (or x145 x30)))) (or x92 x92)) (and (and (and (and (or x57 x113) (and (and (or x149 x86) (or x33 x25)) (or x158 x158))) (or x95 x106)) (and (and (or x70 x22) (and (and (and (or x17 x17) (or x142 x39)) (or x149 x86)) (or x20 x153))) (and (or x145 x30) (and (or x5 x79) (and (and (or x39 x142) (or x78 x78)) (or x25 x33)))))) (and (or x18 x14) (and (or x147 x147) (and (and (or x5 x79) (or x153 x20)) (or x113 x57)))))) (or (or (or (and (and (and (or x82 x37) (and (and (or x109 x59) (and (or x21 x65) (or x84 x24))) (or x81 x81))) (and (and (and (or x52 x115) (and (and (and (or x105 x105) (or x159 x67)) (or x55 x28)) (or x24 x84))) (and (and (and (or x56 x12) (and (or x76 x76) (or x67 x159))) (or x65 x21)) (or x146 x140))) (and (and (or x109 x59) (and (and (or x56 x12) (or x55 x28)) (or x134 x134))) (or x126 x93)))) (and (or x152 x152) (and (and (or x126 x93) (and (or x115 x52) (or x146 x140))) (or x82 x37)))) (and (and (and (and (and (and (or x125 x131) (and (and (or x75 x75) (or x107 x7)) (or x45 x135))) (or x26 x71)) (and (and (and (and (or x53 x53) (or x7 x107)) (or x112 x108)) (or x116 x100)) (or x151 x66))) (and (or x63 x138) (and (and (or x35 x35) (and (or x135 x45) (or x112 x108))) (or x122 x110)))) (and (or x38 x2) (and (and (or x122 x110) (and (or x116 x100) (or x125 x131))) (or x88 x88)))) (and (or x43 x43) (and (and (or x63 x138) (and (or x151 x66) (or x71 x26))) (or x38 x2))))) (and (and (and (or x132 x72) (and (or x41 x143) (and (or x34 x150) (or x40 x16)))) (or x139 x139)) (and (and (and (or x41 x143) (and (and (and (or x141 x42) (or x128 x111)) (or x144 x144)) (or x62 x1))) (and (and (or x150 x34) (and (and (or x111 x128) (and (or x31 x54) (or x137 x137))) (or x120 x91))) (and (or x16 x40) (and (or x49 x44) (and (and (or x4 x4) (or x31 x54)) (or x141 x42)))))) (and (or x132 x72) (and (and (and (or x120 x91) (or x49 x44)) (or x1 x62)) (or x97 x97)))))) (and (and (and (or x27 x60) (and (or x87 x87) (and (or x47 x6) (and (or x104 x9) (or x154 x123))))) (and (and (and (and (or x9 x104) (and (and (or x103 x68) (or x117 x117)) (or x11 x102))) (or x74 x64)) (and (and (or x123 x154) (and (and (or x68 x103) (or x36 x36)) (or x136 x61))) (or x90 x133))) (and (or x19 x121) (and (or x6 x47) (and (or x114 x114) (and (or x61 x136) (or x102 x11))))))) (and (and (and (or x121 x19) (and (or x74 x64) (or x133 x90))) (or x60 x27)) (or x101 x101))))))))
(assert (let ((x24 (x155 x8 x99)) (x59 (x155 x8 x83)) (x105 (x155 x80 x80)) (x134 (x155 x130 x99)) (x84 (x155 x80 x83)) (x52 (x155 x83 x130)) (x140 (x155 x8 x130)) (x65 (x155 x83 x83)) (x67 (x155 x83 x80)) (x81 (x155 x80 x130)) (x76 (x155 x130 x80)) (x115 (x155 x99 x130)) (x37 (x155 x83 x8)) (x152 (x155 x8 x8)) (x21 (x155 x99 x83)) (x12 (x155 x83 x99)) (x146 (x155 x130 x130)) (x55 (x155 x8 x80)) (x126 (x155 x99 x8)) (x159 (x155 x99 x80)) (x28 (x155 x80 x99)) (x82 (x155 x130 x8)) (x93 (x155 x80 x8)) (x56 (x155 x99 x99)) (x109 (x155 x130 x83))) (and (and (and (not (= x140 x152)) (and (and (and (not (= x152 x24)) (and (and (and (not (= x55 x152)) (and (and (not (= x59 x55)) (not (= x24 x55))) (not (= x55 x140)))) (not (= x59 x24))) (not (= x24 x140)))) (not (= x59 x140))) (not (= x59 x152)))) (and (and (and (and (and (and (and (not (= x12 x52)) (and (and (not (= x37 x67)) (and (not (= x52 x67)) (and (not (= x12 x67)) (not (= x67 x65))))) (not (= x65 x12)))) (not (= x12 x37))) (not (= x52 x65))) (not (= x65 x37))) (not (= x52 x37))) (and (and (not (= x126 x115)) (and (not (= x21 x126)) (and (and (not (= x56 x126)) (and (and (and (not (= x126 x159)) (and (not (= x115 x159)) (and (not (= x56 x159)) (not (= x21 x159))))) (not (= x21 x56))) (not (= x115 x56)))) (not (= x21 x115))))) (and (not (= x81 x93)) (and (and (not (= x81 x84)) (and (not (= x93 x28)) (and (not (= x28 x81)) (and (and (and (and (not (= x105 x28)) (not (= x84 x105))) (not (= x105 x81))) (not (= x93 x105))) (not (= x28 x84)))))) (not (= x84 x93)))))) (and (and (and (and (and (and (not (= x109 x134)) (and (not (= x76 x82)) (and (not (= x76 x146)) (and (not (= x76 x134)) (not (= x109 x76)))))) (not (= x146 x134))) (not (= x82 x134))) (not (= x146 x109))) (not (= x109 x82))) (not (= x146 x82))))) (and (and (not (= x152 x82)) (and (not (= x37 x152)) (and (not (= x82 x37)) (and (and (and (and (and (not (= x93 x82)) (and (not (= x93 x126)) (not (= x37 x93)))) (not (= x93 x152))) (not (= x126 x37))) (not (= x126 x82))) (not (= x126 x152)))))) (and (and (and (and (and (not (= x109 x65)) (and (not (= x21 x59)) (and (and (and (not (= x84 x59)) (and (and (not (= x84 x65)) (not (= x84 x21))) (not (= x84 x109)))) (not (= x65 x21))) (not (= x21 x109))))) (not (= x65 x59))) (not (= x59 x109))) (and (and (not (= x76 x55)) (and (not (= x55 x67)) (and (not (= x67 x76)) (and (not (= x159 x55)) (and (not (= x76 x159)) (and (and (and (and (not (= x67 x105)) (not (= x159 x105))) (not (= x105 x76))) (not (= x105 x55))) (not (= x159 x67)))))))) (and (not (= x134 x24)) (and (not (= x12 x24)) (and (and (and (not (= x134 x56)) (and (not (= x12 x56)) (and (and (and (not (= x28 x12)) (not (= x28 x56))) (not (= x28 x134))) (not (= x24 x28))))) (not (= x24 x56))) (not (= x12 x134))))))) (and (and (not (= x140 x52)) (and (and (and (and (and (and (not (= x146 x81)) (and (not (= x81 x115)) (not (= x52 x81)))) (not (= x140 x81))) (not (= x115 x52))) (not (= x115 x146))) (not (= x115 x140))) (not (= x52 x146)))) (not (= x140 x146))))))))
(assert (or (= (x155 x8 x8) x8) (or (= (x155 x130 x130) x130) (or (= (x155 x83 x83) x83) (or (= x99 (x155 x99 x99)) (= (x155 x80 x80) x80))))))
(assert (and (and (and (or (= x83 (x155 (x155 x8 x83) x8)) (or (= x83 (x155 (x155 x130 x83) x130)) (or (= x83 (x155 (x155 x83 x83) x83)) (or (= (x155 (x155 x80 x83) x80) x83) (= (x155 (x155 x99 x83) x99) x83))))) (and (or (or (= x80 (x155 (x155 x130 x80) x130)) (or (= x80 (x155 (x155 x83 x80) x83)) (or (= (x155 (x155 x99 x80) x99) x80) (= x80 (x155 (x155 x80 x80) x80))))) (= x80 (x155 (x155 x8 x80) x8))) (or (or (or (or (= x99 (x155 (x155 x99 x99) x99)) (= (x155 (x155 x80 x99) x80) x99)) (= x99 (x155 (x155 x83 x99) x83))) (= (x155 (x155 x130 x99) x130) x99)) (= x99 (x155 (x155 x8 x99) x8))))) (or (or (= (x155 (x155 x130 x130) x130) x130) (or (or (= x130 (x155 (x155 x99 x130) x99)) (= x130 (x155 (x155 x80 x130) x80))) (= x130 (x155 (x155 x83 x130) x83)))) (= (x155 (x155 x8 x130) x8) x130))) (or (= (x155 (x155 x8 x8) x8) x8) (or (or (= x8 (x155 (x155 x83 x8) x83)) (or (= (x155 (x155 x80 x8) x80) x8) (= x8 (x155 (x155 x99 x8) x99)))) (= x8 (x155 (x155 x130 x8) x130))))))
(assert (and (and (and (and (or (or (= (x155 (x155 x130 x80) x80) x130) (or (= (x155 (x155 x83 x80) x80) x83) (or (= x80 (x155 (x155 x80 x80) x80)) (= (x155 (x155 x99 x80) x80) x99)))) (= x8 (x155 (x155 x8 x80) x80))) (or (or (or (= x83 (x155 (x155 x83 x99) x99)) (or (= (x155 (x155 x99 x99) x99) x99) (= x80 (x155 (x155 x80 x99) x99)))) (= (x155 (x155 x130 x99) x99) x130)) (= (x155 (x155 x8 x99) x99) x8))) (or (or (= x130 (x155 (x155 x130 x83) x83)) (or (= (x155 (x155 x83 x83) x83) x83) (or (= x99 (x155 (x155 x99 x83) x83)) (= x80 (x155 (x155 x80 x83) x83))))) (= (x155 (x155 x8 x83) x83) x8))) (or (= (x155 (x155 x8 x130) x130) x8) (or (or (= (x155 (x155 x83 x130) x130) x83) (or (= (x155 (x155 x99 x130) x130) x99) (= x80 (x155 (x155 x80 x130) x130)))) (= x130 (x155 (x155 x130 x130) x130))))) (or (or (or (= (x155 (x155 x83 x8) x8) x83) (or (= x99 (x155 (x155 x99 x8) x8)) (= x80 (x155 (x155 x80 x8) x8)))) (= x130 (x155 (x155 x130 x8) x8))) (= (x155 (x155 x8 x8) x8) x8))))
(assert (or (and (and (and (and (not (= x99 (x155 x8 (x155 x8 x99)))) (not (= x80 (x155 x8 (x155 x8 x80))))) (not (= (x155 x8 (x155 x8 x83)) x83))) (not (= (x155 x8 (x155 x8 x130)) x130))) (not (= x8 (x155 x8 (x155 x8 x8))))) (or (and (not (= (x155 x130 (x155 x130 x8)) x8)) (and (and (not (= x83 (x155 x130 (x155 x130 x83)))) (and (not (= (x155 x130 (x155 x130 x80)) x80)) (not (= (x155 x130 (x155 x130 x99)) x99)))) (not (= (x155 x130 (x155 x130 x130)) x130)))) (or (and (and (and (and (not (= x99 (x155 x83 (x155 x83 x99)))) (not (= (x155 x83 (x155 x83 x80)) x80))) (not (= x83 (x155 x83 (x155 x83 x83))))) (not (= (x155 x83 (x155 x83 x130)) x130))) (not (= x8 (x155 x83 (x155 x83 x8))))) (or (and (and (and (and (not (= x80 (x155 x99 (x155 x99 x80)))) (not (= (x155 x99 (x155 x99 x99)) x99))) (not (= (x155 x99 (x155 x99 x83)) x83))) (not (= x130 (x155 x99 (x155 x99 x130))))) (not (= x8 (x155 x99 (x155 x99 x8))))) (and (and (not (= (x155 x80 (x155 x80 x130)) x130)) (and (and (not (= (x155 x80 (x155 x80 x80)) x80)) (not (= x99 (x155 x80 (x155 x80 x99))))) (not (= x83 (x155 x80 (x155 x80 x83)))))) (not (= (x155 x80 (x155 x80 x8)) x8))))))))
(assert (or (or (or (or (not (= (x155 (x155 x99 x99) x99) x99)) (not (= x80 (x155 (x155 x80 x80) x80)))) (not (= (x155 (x155 x83 x83) x83) x83))) (not (= x130 (x155 (x155 x130 x130) x130)))) (not (= (x155 (x155 x8 x8) x8) x8))))
(check-sat)
(exit)
